c Random CNF formula
p cnf 10 42
-2 -9 -8 0
-7 8 -1 0
8 -1 5 0
10 -1 -6 0
-5 -1 -3 0
3 5 1 0
-2 -10 9 0
8 10 -5 0
-6 9 -1 0
2 -6 -8 0
-6 -8 -4 0
-8 -10 6 0
10 -8 6 0
-10 6 5 0
1 8 9 0
6 5 -1 0
-6 5 4 0
-7 -5 1 0
9 8 -3 0
-1 8 -3 0
-1 -2 6 0
-5 -4 -1 0
-2 9 6 0
-1 2 8 0
6 3 -10 0
-7 4 -6 0
-3 10 -9 0
-10 -8 5 0
1 -9 10 0
-10 -8 -6 0
-7 5 -2 0
5 -4 -9 0
-4 -10 8 0
9 10 -4 0
-10 -3 8 0
3 -8 -7 0
3 9 -7 0
-6 2 1 0
9 -4 7 0
3 1 -9 0
-3 8 -9 0
-2 9 -1 0
